5399963485942863535014,3,1,2,05,11,1,2,015,12,1,2,013,12,1,2,010,3,1,2,02,5,1,2,014,9,1,2,08,3,1,2,08,13,1,2,012,2,1,2,011,15,1,2,07,15,1,2,01,10,1,2,013,8,1,2,013,3,1,2,03,13,1,2,012,13,1,2,01,3,1,2,012,1,1,2,03,15,1,2,06,7,1,2,011,9,1,2,014,5,1,2,015,11,1,2,015,5,1,2,03,14,1,2,015,1,1,2,014,2,1,2,013,8,1,2,011,3,1,2,04,3,1,2,013,1,1,2,04,5,1,2,01,13,1,2,08,3,1,2,02,7,1,2,08,2,1,2,010,5,1,2,05,8,1,2,08,14,1,2,011,15,1,2,011,12,1,2,015,7,1,2,02,11,1,2,04,7,1,2,02,9,1,2,04,11,1,2,06,10,1,2,08,8,1,2,05,2,1,2,0